p edge 23 48
e 1 3
e 1 4
e 1 6
e 1 9
e 1 11
e 1 15
e 1 17
e 1 22
e 2 3
e 2 11
e 2 12
e 3 10
e 3 13
e 3 15
e 3 19
e 4 8
e 5 7
e 5 12
e 5 22
e 5 23
e 6 15
e 6 21
e 7 8
e 7 16
e 7 21
e 7 22
e 8 11
e 8 17
e 8 20
e 8 23
e 9 13
e 9 16
e 10 12
e 10 16
e 10 17
e 11 18
e 11 19
e 12 15
e 12 17
e 13 14
e 13 18
e 13 23
e 14 17
e 15 19
e 16 17
e 18 21
e 19 22
e 21 23
